RT is False
Default write of storage_offers_DA.csv just to have a file (but constraint should be inactive)
Reading model...
...model read.
creating competitive generators file...
...competitive generators recorded.
Loading data...
.. day-ahead data with real-time VRE data read.
Compiling instance...
...instance created.
Creating Offer Mitigation (model will solve as dispatch if TRUE)...
NOTE: storage offers will not be mitigated
...storage offer mitigation file created
Converting model to MPEC...
...converted
NOTE: initial MIP solve with only storage competitive to get feasible solution
Solving...

Welcome to IBM(R) ILOG(R) CPLEX(R) Interactive Optimizer 12.9.0.0
  with Simplex, Mixed Integer & Barrier Optimizers
5725-A06 5725-A29 5724-Y48 5724-Y49 5724-Y54 5724-Y55 5655-Y21
Copyright IBM Corp. 1988, 2019.  All Rights Reserved.

Type 'help' for a list of available commands.
Type 'help' followed by a command name for more
information on commands.

CPLEX> Logfile 'cplex.log' closed.
Logfile 'C:\Users\llavin\Desktop\test826\logs\tmpfprmhyyy.cplex.log' open.
CPLEX> New value for parallel optimization mode: -1
CPLEX> New value for mixed integer optimality gap tolerance: 0.01
CPLEX> New value for integrality tolerance: 1e-09
CPLEX> New value for feasibility tolerance: 0.001
CPLEX> New value for deterministic time limit in ticks: 75000
CPLEX> Problem 'C:\Users\llavin\Desktop\test826\logs\tmpvy4ui2k0.pyomo.lp' read.
Read time = 0.23 sec. (14.73 ticks)
CPLEX> Problem name         : C:\Users\llavin\Desktop\test826\logs\tmpvy4ui2k0.pyomo.lp
Objective sense      : Maximize
Variables            :   53805  [Nneg: 1,  Box: 22000,  Free: 4464,
                                 Binary: 27340]
Objective nonzeros   :    9029
Linear constraints   :  123205  [Less: 41346,  Greater: 59096,  Equal: 22763]
  Nonzeros           :  291753
  RHS nonzeros       :   67491

Variables            : Min LB: -5000.000        Max UB: 1000000.       
Objective nonzeros   : Min   : 0.4000000        Max   : 2500.000       
Linear constraints   :
  Nonzeros           : Min   : 0.4000000        Max   : 1000000.       
  RHS nonzeros       : Min   : 0.4000000        Max   : 1000000.       
CPLEX> CPXPARAM_Parallel                                -1
CPXPARAM_Simplex_Tolerances_Feasibility          0.001
CPXPARAM_DetTimeLimit                            75000
CPXPARAM_MIP_Tolerances_MIPGap                   0.01
CPXPARAM_MIP_Tolerances_Integrality              1.0000000000000001e-09
Tried aggregator 3 times.
MIP Presolve eliminated 88666 rows and 18990 columns.
MIP Presolve added 3379 rows and 0 columns.
MIP Presolve modified 24794 coefficients.
Aggregator did 12976 substitutions.
Reduced MIP has 24942 rows, 21283 columns, and 71143 nonzeros.
Reduced MIP has 8411 binaries, 0 generals, 0 SOSs, and 0 indicators.
Presolve time = 0.28 sec. (172.24 ticks)
Probing fixed 409 vars, tightened 2888 bounds.
Probing time = 1.28 sec. (904.59 ticks)
Tried aggregator 2 times.
MIP Presolve eliminated 927 rows and 821 columns.
MIP Presolve modified 2213 coefficients.
Aggregator did 40 substitutions.
Reduced MIP has 23975 rows, 20422 columns, and 68338 nonzeros.
Reduced MIP has 8001 binaries, 0 generals, 0 SOSs, and 0 indicators.
Presolve time = 0.11 sec. (68.25 ticks)
Probing fixed 4 vars, tightened 10 bounds.
Probing time = 0.19 sec. (117.14 ticks)
Clique table members: 8419.
MIP emphasis: balance optimality and feasibility.
MIP search method: dynamic search.
Parallel mode: opportunistic, using up to 32 threads.
Root relaxation solution time = 0.44 sec. (541.64 ticks)

        Nodes                                         Cuts/
   Node  Left     Objective  IInf  Best Integer    Best Bound    ItCnt     Gap

      0     0     3940.9761   658                   3940.9761     6531         
      0     0     3940.9761     1                     Cuts: 3     6533         
*     0+   10                         3678.8962   Impl Bds: 1             1.80%
Elapsed time = 7.91 sec. (4237.40 ticks, tree = 0.09 MB, solutions = 1)

Implied bound cuts applied:  1
Flow cuts applied:  1

Root node processing (before b&c):
  Real time             =    6.37 sec. (4219.05 ticks)
Parallel b&c, 32 threads:
  Real time             =    1.66 sec. (260.52 ticks)
  Sync time (average)   =    1.02 sec.
  Wait time (average)   =    0.00 sec.
                          ------------
Total (root+branch&cut) =    8.03 sec. (4479.56 ticks)

Solution pool: 1 solution saved.

MIP - Integer optimal, tolerance (0.01/1e-06):  Objective =  3.6788962243e+03
Current MIP best bound =  3.7156404019e+03 (gap = 36.7442, 1.00%)
Solution time =    8.03 sec.  Iterations = 6712  Nodes = 50 (8)
Deterministic time = 4479.71 ticks  (557.80 ticks/sec)

CPLEX> Incumbent solution written to file 'C:\Users\llavin\Desktop\test826\logs\tmpf2hv378l.cplex.sol'.
CPLEX> NOTE: no warmstart specified for MIP iteration, default behavior is true
NOTE: resolving with all competitive generators using storage-only solution to warmstart
Solving...

Welcome to IBM(R) ILOG(R) CPLEX(R) Interactive Optimizer 12.9.0.0
  with Simplex, Mixed Integer & Barrier Optimizers
5725-A06 5725-A29 5724-Y48 5724-Y49 5724-Y54 5724-Y55 5655-Y21
Copyright IBM Corp. 1988, 2019.  All Rights Reserved.

Type 'help' for a list of available commands.
Type 'help' followed by a command name for more
information on commands.

CPLEX> Logfile 'cplex.log' closed.
Logfile 'C:\Users\llavin\Desktop\test826\logs\tmpfk_8szu0.cplex.log' open.
CPLEX> New value for parallel optimization mode: -1
CPLEX> New value for mixed integer optimality gap tolerance: 0.01
CPLEX> New value for integrality tolerance: 1e-09
CPLEX> New value for feasibility tolerance: 0.001
CPLEX> New value for deterministic time limit in ticks: 75000
CPLEX> Problem 'C:\Users\llavin\Desktop\test826\logs\tmpzyip1_5p.pyomo.lp' read.
Read time = 0.23 sec. (14.75 ticks)
CPLEX> MIP start file 'C:\Users\llavin\Desktop\test826\logs\tmphuv7z1mm.cplex.mst' read.
CPLEX> Problem name         : C:\Users\llavin\Desktop\test826\logs\tmpzyip1_5p.pyomo.lp
Objective sense      : Maximize
Variables            :   54525  [Nneg: 1,  Box: 22720,  Free: 4464,
                                 Binary: 27340]
Objective nonzeros   :    9749
Linear constraints   :  123205  [Less: 41346,  Greater: 59096,  Equal: 22763]
  Nonzeros           :  291753
  RHS nonzeros       :   67491

Variables            : Min LB: -5000.000        Max UB: 1000000.       
Objective nonzeros   : Min   : 0.4000000        Max   : 2500.000       
Linear constraints   :
  Nonzeros           : Min   : 0.4000000        Max   : 1000000.       
  RHS nonzeros       : Min   : 0.4000000        Max   : 1000000.       
CPLEX> CPXPARAM_Parallel                                -1
CPXPARAM_Simplex_Tolerances_Feasibility          0.001
CPXPARAM_DetTimeLimit                            75000
CPXPARAM_MIP_Tolerances_MIPGap                   0.01
CPXPARAM_MIP_Tolerances_Integrality              1.0000000000000001e-09
Warning:  No solution found from 1 MIP starts.
Retaining values of one MIP start for possible repair.
Tried aggregator 3 times.
MIP Presolve eliminated 88666 rows and 19710 columns.
MIP Presolve added 3379 rows and 0 columns.
MIP Presolve modified 24794 coefficients.
Aggregator did 12976 substitutions.
Reduced MIP has 24942 rows, 21283 columns, and 71143 nonzeros.
Reduced MIP has 8411 binaries, 0 generals, 0 SOSs, and 0 indicators.
Presolve time = 0.28 sec. (172.60 ticks)
Probing fixed 409 vars, tightened 2888 bounds.
Probing time = 1.23 sec. (904.59 ticks)
Tried aggregator 2 times.
MIP Presolve eliminated 927 rows and 821 columns.
MIP Presolve modified 2213 coefficients.
Aggregator did 40 substitutions.
Reduced MIP has 23975 rows, 20422 columns, and 68338 nonzeros.
Reduced MIP has 8001 binaries, 0 generals, 0 SOSs, and 0 indicators.
Presolve time = 0.11 sec. (68.25 ticks)
Probing fixed 4 vars, tightened 10 bounds.
Probing time = 0.19 sec. (117.14 ticks)
Clique table members: 8419.
MIP emphasis: balance optimality and feasibility.
MIP search method: dynamic search.
Parallel mode: opportunistic, using up to 32 threads.
Root relaxation solution time = 0.44 sec. (541.64 ticks)

        Nodes                                         Cuts/
   Node  Left     Objective  IInf  Best Integer    Best Bound    ItCnt     Gap

      0     0     3940.9761   658                   3940.9761     6531         
      0     0     3940.9761     1                     Cuts: 3     6533         
Repair heuristic found nothing.
*     0+    9                         3678.8962       Cuts: 2             2.10%
Elapsed time = 8.27 sec. (4279.25 ticks, tree = 0.06 MB, solutions = 1)
     46     8     3756.0071     4     3678.8962     3738.8984     6632    1.63%
     72     8     3749.4310     4     3678.8962     3738.8984     6727    1.63%

Cover cuts applied:  1
Implied bound cuts applied:  1
Flow cuts applied:  1

Root node processing (before b&c):
  Real time             =    6.70 sec. (4264.36 ticks)
Parallel b&c, 32 threads:
  Real time             =    2.47 sec. (687.89 ticks)
  Sync time (average)   =    1.80 sec.
  Wait time (average)   =    0.00 sec.
                          ------------
Total (root+branch&cut) =    9.17 sec. (4952.25 ticks)

Solution pool: 1 solution saved.

MIP - Integer optimal, tolerance (0.01/1e-06):  Objective =  3.6788962243e+03
Current MIP best bound =  3.7110364477e+03 (gap = 32.1402, 0.87%)
Solution time =    9.19 sec.  Iterations = 6775  Nodes = 86 (6)
Deterministic time = 4952.40 ticks  (539.07 ticks/sec)

CPLEX> Incumbent solution written to file 'C:\Users\llavin\Desktop\test826\logs\tmpef26tlju.cplex.sol'.
CPLEX> Exporting results... 
